(declare-const x String)
(declare-const y String)
(assert (str.in.re x (re.* (re.+ (str.to.re "b")))))
(assert (str.in.re y (str.to.re "")))
(assert (= (str.to.int x) (str.len y)))
(assert (= 2 4))
(check-sat)
(get-model)
